c *********************************
c * Circuit generated by BenCGen
c *
c * CarryLookaheadBlock_40_40_40_InOutT
c *
c * Ports with 1 gate(s): 2
c * Ports with 2 gate(s): 171
c * Ports with 3 gate(s): 40
c * Ports with 4 gate(s): 30
c * Ports with 5 gate(s): 20
c * Total gates: 263
c *********************************
p cnf 343 1027
1 123 0
-1 -123 0
1 -122 0
123 -122 0
-1 -123 122 0
1 41 -124 0
-1 41 124 0
1 -41 124 0
-1 -41 -124 0
1 -164 0
41 -164 0
-1 -41 164 0
2 42 -125 0
-2 42 125 0
2 -42 125 0
-2 -42 -125 0
2 -165 0
42 -165 0
-2 -42 165 0
3 43 -126 0
-3 43 126 0
3 -43 126 0
-3 -43 -126 0
3 -166 0
43 -166 0
-3 -43 166 0
4 44 -127 0
-4 44 127 0
4 -44 127 0
-4 -44 -127 0
4 -167 0
44 -167 0
-4 -44 167 0
5 45 -128 0
-5 45 128 0
5 -45 128 0
-5 -45 -128 0
5 -168 0
45 -168 0
-5 -45 168 0
6 46 -129 0
-6 46 129 0
6 -46 129 0
-6 -46 -129 0
6 -169 0
46 -169 0
-6 -46 169 0
7 47 -130 0
-7 47 130 0
7 -47 130 0
-7 -47 -130 0
7 -170 0
47 -170 0
-7 -47 170 0
8 48 -131 0
-8 48 131 0
8 -48 131 0
-8 -48 -131 0
8 -171 0
48 -171 0
-8 -48 171 0
9 49 -132 0
-9 49 132 0
9 -49 132 0
-9 -49 -132 0
9 -172 0
49 -172 0
-9 -49 172 0
10 50 -133 0
-10 50 133 0
10 -50 133 0
-10 -50 -133 0
10 -173 0
50 -173 0
-10 -50 173 0
11 51 -134 0
-11 51 134 0
11 -51 134 0
-11 -51 -134 0
11 -174 0
51 -174 0
-11 -51 174 0
12 52 -135 0
-12 52 135 0
12 -52 135 0
-12 -52 -135 0
12 -175 0
52 -175 0
-12 -52 175 0
13 53 -136 0
-13 53 136 0
13 -53 136 0
-13 -53 -136 0
13 -176 0
53 -176 0
-13 -53 176 0
14 54 -137 0
-14 54 137 0
14 -54 137 0
-14 -54 -137 0
14 -177 0
54 -177 0
-14 -54 177 0
15 55 -138 0
-15 55 138 0
15 -55 138 0
-15 -55 -138 0
15 -178 0
55 -178 0
-15 -55 178 0
16 56 -139 0
-16 56 139 0
16 -56 139 0
-16 -56 -139 0
16 -179 0
56 -179 0
-16 -56 179 0
17 57 -140 0
-17 57 140 0
17 -57 140 0
-17 -57 -140 0
17 -180 0
57 -180 0
-17 -57 180 0
18 58 -141 0
-18 58 141 0
18 -58 141 0
-18 -58 -141 0
18 -181 0
58 -181 0
-18 -58 181 0
19 59 -142 0
-19 59 142 0
19 -59 142 0
-19 -59 -142 0
19 -182 0
59 -182 0
-19 -59 182 0
20 60 -143 0
-20 60 143 0
20 -60 143 0
-20 -60 -143 0
20 -183 0
60 -183 0
-20 -60 183 0
21 61 -144 0
-21 61 144 0
21 -61 144 0
-21 -61 -144 0
21 -184 0
61 -184 0
-21 -61 184 0
22 62 -145 0
-22 62 145 0
22 -62 145 0
-22 -62 -145 0
22 -185 0
62 -185 0
-22 -62 185 0
23 63 -146 0
-23 63 146 0
23 -63 146 0
-23 -63 -146 0
23 -186 0
63 -186 0
-23 -63 186 0
24 64 -147 0
-24 64 147 0
24 -64 147 0
-24 -64 -147 0
24 -187 0
64 -187 0
-24 -64 187 0
25 65 -148 0
-25 65 148 0
25 -65 148 0
-25 -65 -148 0
25 -188 0
65 -188 0
-25 -65 188 0
26 66 -149 0
-26 66 149 0
26 -66 149 0
-26 -66 -149 0
26 -189 0
66 -189 0
-26 -66 189 0
27 67 -150 0
-27 67 150 0
27 -67 150 0
-27 -67 -150 0
27 -190 0
67 -190 0
-27 -67 190 0
28 68 -151 0
-28 68 151 0
28 -68 151 0
-28 -68 -151 0
28 -191 0
68 -191 0
-28 -68 191 0
29 69 -152 0
-29 69 152 0
29 -69 152 0
-29 -69 -152 0
29 -192 0
69 -192 0
-29 -69 192 0
30 70 -153 0
-30 70 153 0
30 -70 153 0
-30 -70 -153 0
30 -193 0
70 -193 0
-30 -70 193 0
31 71 -154 0
-31 71 154 0
31 -71 154 0
-31 -71 -154 0
31 -194 0
71 -194 0
-31 -71 194 0
32 72 -155 0
-32 72 155 0
32 -72 155 0
-32 -72 -155 0
32 -195 0
72 -195 0
-32 -72 195 0
33 73 -156 0
-33 73 156 0
33 -73 156 0
-33 -73 -156 0
33 -196 0
73 -196 0
-33 -73 196 0
34 74 -157 0
-34 74 157 0
34 -74 157 0
-34 -74 -157 0
34 -197 0
74 -197 0
-34 -74 197 0
35 75 -158 0
-35 75 158 0
35 -75 158 0
-35 -75 -158 0
35 -198 0
75 -198 0
-35 -75 198 0
36 76 -159 0
-36 76 159 0
36 -76 159 0
-36 -76 -159 0
36 -199 0
76 -199 0
-36 -76 199 0
37 77 -160 0
-37 77 160 0
37 -77 160 0
-37 -77 -160 0
37 -200 0
77 -200 0
-37 -77 200 0
38 78 -161 0
-38 78 161 0
38 -78 161 0
-38 -78 -161 0
38 -201 0
78 -201 0
-38 -78 201 0
39 79 -162 0
-39 79 162 0
39 -79 162 0
-39 -79 -162 0
39 -202 0
79 -202 0
-39 -79 202 0
40 80 -163 0
-40 80 163 0
40 -80 163 0
-40 -80 -163 0
40 -203 0
80 -203 0
-40 -80 203 0
122 -244 0
124 -244 0
-122 -124 244 0
122 -245 0
124 -245 0
125 -245 0
-122 -124 -125 245 0
164 -246 0
125 -246 0
-164 -125 246 0
122 -247 0
124 -247 0
125 -247 0
126 -247 0
-122 -124 -125 -126 247 0
164 -248 0
125 -248 0
126 -248 0
-164 -125 -126 248 0
165 -249 0
126 -249 0
-165 -126 249 0
122 -250 0
124 -250 0
125 -250 0
126 -250 0
127 -250 0
-122 -124 -125 -126 -127 250 0
164 -251 0
125 -251 0
126 -251 0
127 -251 0
-164 -125 -126 -127 251 0
165 -252 0
126 -252 0
127 -252 0
-165 -126 -127 252 0
166 -253 0
127 -253 0
-166 -127 253 0
-164 204 0
-244 204 0
164 244 -204 0
-165 205 0
-245 205 0
-246 205 0
165 245 246 -205 0
-166 206 0
-247 206 0
-248 206 0
-249 206 0
166 247 248 249 -206 0
-167 207 0
-250 207 0
-251 207 0
-252 207 0
-253 207 0
167 250 251 252 253 -207 0
207 -254 0
128 -254 0
-207 -128 254 0
207 -255 0
128 -255 0
129 -255 0
-207 -128 -129 255 0
168 -256 0
129 -256 0
-168 -129 256 0
207 -257 0
128 -257 0
129 -257 0
130 -257 0
-207 -128 -129 -130 257 0
168 -258 0
129 -258 0
130 -258 0
-168 -129 -130 258 0
169 -259 0
130 -259 0
-169 -130 259 0
207 -260 0
128 -260 0
129 -260 0
130 -260 0
131 -260 0
-207 -128 -129 -130 -131 260 0
168 -261 0
129 -261 0
130 -261 0
131 -261 0
-168 -129 -130 -131 261 0
169 -262 0
130 -262 0
131 -262 0
-169 -130 -131 262 0
170 -263 0
131 -263 0
-170 -131 263 0
-168 208 0
-254 208 0
168 254 -208 0
-169 209 0
-255 209 0
-256 209 0
169 255 256 -209 0
-170 210 0
-257 210 0
-258 210 0
-259 210 0
170 257 258 259 -210 0
-171 211 0
-260 211 0
-261 211 0
-262 211 0
-263 211 0
171 260 261 262 263 -211 0
211 -264 0
132 -264 0
-211 -132 264 0
211 -265 0
132 -265 0
133 -265 0
-211 -132 -133 265 0
172 -266 0
133 -266 0
-172 -133 266 0
211 -267 0
132 -267 0
133 -267 0
134 -267 0
-211 -132 -133 -134 267 0
172 -268 0
133 -268 0
134 -268 0
-172 -133 -134 268 0
173 -269 0
134 -269 0
-173 -134 269 0
211 -270 0
132 -270 0
133 -270 0
134 -270 0
135 -270 0
-211 -132 -133 -134 -135 270 0
172 -271 0
133 -271 0
134 -271 0
135 -271 0
-172 -133 -134 -135 271 0
173 -272 0
134 -272 0
135 -272 0
-173 -134 -135 272 0
174 -273 0
135 -273 0
-174 -135 273 0
-172 212 0
-264 212 0
172 264 -212 0
-173 213 0
-265 213 0
-266 213 0
173 265 266 -213 0
-174 214 0
-267 214 0
-268 214 0
-269 214 0
174 267 268 269 -214 0
-175 215 0
-270 215 0
-271 215 0
-272 215 0
-273 215 0
175 270 271 272 273 -215 0
215 -274 0
136 -274 0
-215 -136 274 0
215 -275 0
136 -275 0
137 -275 0
-215 -136 -137 275 0
176 -276 0
137 -276 0
-176 -137 276 0
215 -277 0
136 -277 0
137 -277 0
138 -277 0
-215 -136 -137 -138 277 0
176 -278 0
137 -278 0
138 -278 0
-176 -137 -138 278 0
177 -279 0
138 -279 0
-177 -138 279 0
215 -280 0
136 -280 0
137 -280 0
138 -280 0
139 -280 0
-215 -136 -137 -138 -139 280 0
176 -281 0
137 -281 0
138 -281 0
139 -281 0
-176 -137 -138 -139 281 0
177 -282 0
138 -282 0
139 -282 0
-177 -138 -139 282 0
178 -283 0
139 -283 0
-178 -139 283 0
-176 216 0
-274 216 0
176 274 -216 0
-177 217 0
-275 217 0
-276 217 0
177 275 276 -217 0
-178 218 0
-277 218 0
-278 218 0
-279 218 0
178 277 278 279 -218 0
-179 219 0
-280 219 0
-281 219 0
-282 219 0
-283 219 0
179 280 281 282 283 -219 0
219 -284 0
140 -284 0
-219 -140 284 0
219 -285 0
140 -285 0
141 -285 0
-219 -140 -141 285 0
180 -286 0
141 -286 0
-180 -141 286 0
219 -287 0
140 -287 0
141 -287 0
142 -287 0
-219 -140 -141 -142 287 0
180 -288 0
141 -288 0
142 -288 0
-180 -141 -142 288 0
181 -289 0
142 -289 0
-181 -142 289 0
219 -290 0
140 -290 0
141 -290 0
142 -290 0
143 -290 0
-219 -140 -141 -142 -143 290 0
180 -291 0
141 -291 0
142 -291 0
143 -291 0
-180 -141 -142 -143 291 0
181 -292 0
142 -292 0
143 -292 0
-181 -142 -143 292 0
182 -293 0
143 -293 0
-182 -143 293 0
-180 220 0
-284 220 0
180 284 -220 0
-181 221 0
-285 221 0
-286 221 0
181 285 286 -221 0
-182 222 0
-287 222 0
-288 222 0
-289 222 0
182 287 288 289 -222 0
-183 223 0
-290 223 0
-291 223 0
-292 223 0
-293 223 0
183 290 291 292 293 -223 0
223 -294 0
144 -294 0
-223 -144 294 0
223 -295 0
144 -295 0
145 -295 0
-223 -144 -145 295 0
184 -296 0
145 -296 0
-184 -145 296 0
223 -297 0
144 -297 0
145 -297 0
146 -297 0
-223 -144 -145 -146 297 0
184 -298 0
145 -298 0
146 -298 0
-184 -145 -146 298 0
185 -299 0
146 -299 0
-185 -146 299 0
223 -300 0
144 -300 0
145 -300 0
146 -300 0
147 -300 0
-223 -144 -145 -146 -147 300 0
184 -301 0
145 -301 0
146 -301 0
147 -301 0
-184 -145 -146 -147 301 0
185 -302 0
146 -302 0
147 -302 0
-185 -146 -147 302 0
186 -303 0
147 -303 0
-186 -147 303 0
-184 224 0
-294 224 0
184 294 -224 0
-185 225 0
-295 225 0
-296 225 0
185 295 296 -225 0
-186 226 0
-297 226 0
-298 226 0
-299 226 0
186 297 298 299 -226 0
-187 227 0
-300 227 0
-301 227 0
-302 227 0
-303 227 0
187 300 301 302 303 -227 0
227 -304 0
148 -304 0
-227 -148 304 0
227 -305 0
148 -305 0
149 -305 0
-227 -148 -149 305 0
188 -306 0
149 -306 0
-188 -149 306 0
227 -307 0
148 -307 0
149 -307 0
150 -307 0
-227 -148 -149 -150 307 0
188 -308 0
149 -308 0
150 -308 0
-188 -149 -150 308 0
189 -309 0
150 -309 0
-189 -150 309 0
227 -310 0
148 -310 0
149 -310 0
150 -310 0
151 -310 0
-227 -148 -149 -150 -151 310 0
188 -311 0
149 -311 0
150 -311 0
151 -311 0
-188 -149 -150 -151 311 0
189 -312 0
150 -312 0
151 -312 0
-189 -150 -151 312 0
190 -313 0
151 -313 0
-190 -151 313 0
-188 228 0
-304 228 0
188 304 -228 0
-189 229 0
-305 229 0
-306 229 0
189 305 306 -229 0
-190 230 0
-307 230 0
-308 230 0
-309 230 0
190 307 308 309 -230 0
-191 231 0
-310 231 0
-311 231 0
-312 231 0
-313 231 0
191 310 311 312 313 -231 0
231 -314 0
152 -314 0
-231 -152 314 0
231 -315 0
152 -315 0
153 -315 0
-231 -152 -153 315 0
192 -316 0
153 -316 0
-192 -153 316 0
231 -317 0
152 -317 0
153 -317 0
154 -317 0
-231 -152 -153 -154 317 0
192 -318 0
153 -318 0
154 -318 0
-192 -153 -154 318 0
193 -319 0
154 -319 0
-193 -154 319 0
231 -320 0
152 -320 0
153 -320 0
154 -320 0
155 -320 0
-231 -152 -153 -154 -155 320 0
192 -321 0
153 -321 0
154 -321 0
155 -321 0
-192 -153 -154 -155 321 0
193 -322 0
154 -322 0
155 -322 0
-193 -154 -155 322 0
194 -323 0
155 -323 0
-194 -155 323 0
-192 232 0
-314 232 0
192 314 -232 0
-193 233 0
-315 233 0
-316 233 0
193 315 316 -233 0
-194 234 0
-317 234 0
-318 234 0
-319 234 0
194 317 318 319 -234 0
-195 235 0
-320 235 0
-321 235 0
-322 235 0
-323 235 0
195 320 321 322 323 -235 0
235 -324 0
156 -324 0
-235 -156 324 0
235 -325 0
156 -325 0
157 -325 0
-235 -156 -157 325 0
196 -326 0
157 -326 0
-196 -157 326 0
235 -327 0
156 -327 0
157 -327 0
158 -327 0
-235 -156 -157 -158 327 0
196 -328 0
157 -328 0
158 -328 0
-196 -157 -158 328 0
197 -329 0
158 -329 0
-197 -158 329 0
235 -330 0
156 -330 0
157 -330 0
158 -330 0
159 -330 0
-235 -156 -157 -158 -159 330 0
196 -331 0
157 -331 0
158 -331 0
159 -331 0
-196 -157 -158 -159 331 0
197 -332 0
158 -332 0
159 -332 0
-197 -158 -159 332 0
198 -333 0
159 -333 0
-198 -159 333 0
-196 236 0
-324 236 0
196 324 -236 0
-197 237 0
-325 237 0
-326 237 0
197 325 326 -237 0
-198 238 0
-327 238 0
-328 238 0
-329 238 0
198 327 328 329 -238 0
-199 239 0
-330 239 0
-331 239 0
-332 239 0
-333 239 0
199 330 331 332 333 -239 0
239 -334 0
160 -334 0
-239 -160 334 0
239 -335 0
160 -335 0
161 -335 0
-239 -160 -161 335 0
200 -336 0
161 -336 0
-200 -161 336 0
239 -337 0
160 -337 0
161 -337 0
162 -337 0
-239 -160 -161 -162 337 0
200 -338 0
161 -338 0
162 -338 0
-200 -161 -162 338 0
201 -339 0
162 -339 0
-201 -162 339 0
239 -340 0
160 -340 0
161 -340 0
162 -340 0
163 -340 0
-239 -160 -161 -162 -163 340 0
200 -341 0
161 -341 0
162 -341 0
163 -341 0
-200 -161 -162 -163 341 0
201 -342 0
162 -342 0
163 -342 0
-201 -162 -163 342 0
202 -343 0
163 -343 0
-202 -163 343 0
-200 240 0
-334 240 0
200 334 -240 0
-201 241 0
-335 241 0
-336 241 0
201 335 336 -241 0
-202 242 0
-337 242 0
-338 242 0
-339 242 0
202 337 338 339 -242 0
-203 243 0
-340 243 0
-341 243 0
-342 243 0
-343 243 0
203 340 341 342 343 -243 0
124 122 -81 0
-124 122 81 0
124 -122 81 0
-124 -122 -81 0
125 204 -82 0
-125 204 82 0
125 -204 82 0
-125 -204 -82 0
126 205 -83 0
-126 205 83 0
126 -205 83 0
-126 -205 -83 0
127 206 -84 0
-127 206 84 0
127 -206 84 0
-127 -206 -84 0
128 207 -85 0
-128 207 85 0
128 -207 85 0
-128 -207 -85 0
129 208 -86 0
-129 208 86 0
129 -208 86 0
-129 -208 -86 0
130 209 -87 0
-130 209 87 0
130 -209 87 0
-130 -209 -87 0
131 210 -88 0
-131 210 88 0
131 -210 88 0
-131 -210 -88 0
132 211 -89 0
-132 211 89 0
132 -211 89 0
-132 -211 -89 0
133 212 -90 0
-133 212 90 0
133 -212 90 0
-133 -212 -90 0
134 213 -91 0
-134 213 91 0
134 -213 91 0
-134 -213 -91 0
135 214 -92 0
-135 214 92 0
135 -214 92 0
-135 -214 -92 0
136 215 -93 0
-136 215 93 0
136 -215 93 0
-136 -215 -93 0
137 216 -94 0
-137 216 94 0
137 -216 94 0
-137 -216 -94 0
138 217 -95 0
-138 217 95 0
138 -217 95 0
-138 -217 -95 0
139 218 -96 0
-139 218 96 0
139 -218 96 0
-139 -218 -96 0
140 219 -97 0
-140 219 97 0
140 -219 97 0
-140 -219 -97 0
141 220 -98 0
-141 220 98 0
141 -220 98 0
-141 -220 -98 0
142 221 -99 0
-142 221 99 0
142 -221 99 0
-142 -221 -99 0
143 222 -100 0
-143 222 100 0
143 -222 100 0
-143 -222 -100 0
144 223 -101 0
-144 223 101 0
144 -223 101 0
-144 -223 -101 0
145 224 -102 0
-145 224 102 0
145 -224 102 0
-145 -224 -102 0
146 225 -103 0
-146 225 103 0
146 -225 103 0
-146 -225 -103 0
147 226 -104 0
-147 226 104 0
147 -226 104 0
-147 -226 -104 0
148 227 -105 0
-148 227 105 0
148 -227 105 0
-148 -227 -105 0
149 228 -106 0
-149 228 106 0
149 -228 106 0
-149 -228 -106 0
150 229 -107 0
-150 229 107 0
150 -229 107 0
-150 -229 -107 0
151 230 -108 0
-151 230 108 0
151 -230 108 0
-151 -230 -108 0
152 231 -109 0
-152 231 109 0
152 -231 109 0
-152 -231 -109 0
153 232 -110 0
-153 232 110 0
153 -232 110 0
-153 -232 -110 0
154 233 -111 0
-154 233 111 0
154 -233 111 0
-154 -233 -111 0
155 234 -112 0
-155 234 112 0
155 -234 112 0
-155 -234 -112 0
156 235 -113 0
-156 235 113 0
156 -235 113 0
-156 -235 -113 0
157 236 -114 0
-157 236 114 0
157 -236 114 0
-157 -236 -114 0
158 237 -115 0
-158 237 115 0
158 -237 115 0
-158 -237 -115 0
159 238 -116 0
-159 238 116 0
159 -238 116 0
-159 -238 -116 0
160 239 -117 0
-160 239 117 0
160 -239 117 0
-160 -239 -117 0
161 240 -118 0
-161 240 118 0
161 -240 118 0
-161 -240 -118 0
162 241 -119 0
-162 241 119 0
162 -241 119 0
-162 -241 -119 0
163 242 -120 0
-163 242 120 0
163 -242 120 0
-163 -242 -120 0
243 -121 0
-243 121 0
